(declare-const term_to_project_onto0 Real)
(declare-const main____CPAchecker_TMP_1___58 Int)
(declare-const term_to_project_onto2 Real)
(declare-const main____CPAchecker_TMP_0___59 Int)
(declare-const term_to_project_onto1 Real)
(declare-const term_to_project_onto7 Real)
(declare-const __VERIFIER_assert__cond___269 Int)
(declare-const term_to_project_onto4 Real)
(declare-const term_to_project_onto5 Real)
(declare-const term_to_project_onto6 Real)
(declare-const term_to_project_onto Real)
(declare-const term_to_project_onto3 Real)
(declare-const __VERIFIER_assert__cond___270 Int)
(assert (exists
         ((|main____CPAchecker_TMP_0___59'?1| Int)
            (|main____CPAchecker_TMP_1___58'?2| Int)
            (|__VERIFIER_assert__cond___270'?3| Int)
            (|__VERIFIER_assert__cond___269'?4| Int)
            (|main____CPAchecker_TMP_0___58'?5| Int)
            (|main____CPAchecker_TMP_1___57'?6| Int) (|__tmp_2390_0'?7| Int)
            (|__tmp_2390_1'?8| Int) (havoc?9 Int) (|main__t'?10| Int)
            (__tmp_2390_1?11 Int) (__tmp_2390_0?12 Int)
            (main____CPAchecker_TMP_1___57?13 Int)
            (main____CPAchecker_TMP_0___58?14 Int) (main__t?15 Int)
            (main__tagbuf_len?16 Int))
         (and (<= (+ (- __tmp_2390_1?11) 1) 0) (= __tmp_2390_0?12 0)
                (<= (+ (- main____CPAchecker_TMP_1___57?13) 1) 0)
                (= main____CPAchecker_TMP_0___58?14 0)
                (<= (+ (- main__t?15) 1) 0)
                (<= (+ (- main__tagbuf_len?16) 1) 0)
                (= (+ (- main__t?15) __tmp_2390_1?11 1) 0)
                (= main____CPAchecker_TMP_0___58?14 0) (= __tmp_2390_0?12 0)
                (or (<= (+ (ite (<= (- main__t?15) 0) 1 0) 1) 0)
                      (<= (+ (- (ite (<= (- main__t?15) 0) 1 0)) 1) 0))
                (or (<= (+ (ite (<= (+ (- main__tagbuf_len?16) main__t?15) 0)
                                1 0) 1) 0)
                      (<= (+ (- (ite (<= (+ (- main__tagbuf_len?16)
                                              main__t?15) 0)
                                     1 0)) 1) 0))
                (or (<= (+ (- main__tagbuf_len?16) main__t?15 2) 0)
                      (<= (+ main__tagbuf_len?16 (- main__t?15)) 0))
                (= havoc?9 0)
                (= (+ |main____CPAchecker_TMP_0___59'?1| (- havoc?9)) 0)
                (= (+ |main____CPAchecker_TMP_1___58'?2| (- main__t?15)) 0)
                (= (+ |__VERIFIER_assert__cond___270'?3|
                        (- (ite (<= (+ (- main__tagbuf_len?16) main__t?15) 0)
                                1 0))) 0)
                (= (+ |__VERIFIER_assert__cond___269'?4|
                        (- (ite (<= (- main__t?15) 0) 1 0))) 0)
                (= (+ |main____CPAchecker_TMP_0___58'?5| (- __tmp_2390_0?12)) 0)
                (= (+ |main____CPAchecker_TMP_1___57'?6| (- __tmp_2390_1?11)) 0)
                (= (+ |main__t'?10| (- main__t?15) -1) 0)
                (= (+ |__tmp_2390_0'?7| (- havoc?9)) 0)
                (= (+ |__tmp_2390_1'?8| (- main__t?15)) 0)
                (= term_to_project_onto7 (+ |__tmp_2390_1'?8|
                                              (- __tmp_2390_1?11)))
                (= term_to_project_onto6 (+ |__tmp_2390_0'?7|
                                              (- __tmp_2390_0?12)))
                (= term_to_project_onto5 (+ |main__t'?10| (- main__t?15)))
                (= term_to_project_onto4 (+ |main____CPAchecker_TMP_1___57'?6|
                                              (- main____CPAchecker_TMP_1___57?13)))
                (= term_to_project_onto3 (+ |main____CPAchecker_TMP_0___58'?5|
                                              (- main____CPAchecker_TMP_0___58?14)))
                (= term_to_project_onto2 (+ |__VERIFIER_assert__cond___269'?4|
                                              (- __VERIFIER_assert__cond___269)))
                (= term_to_project_onto1 (+ |__VERIFIER_assert__cond___270'?3|
                                              (- __VERIFIER_assert__cond___270)))
                (= term_to_project_onto0 (+ |main____CPAchecker_TMP_1___58'?2|
                                              (- main____CPAchecker_TMP_1___58)))
                (= term_to_project_onto (+ |main____CPAchecker_TMP_0___59'?1|
                                             (- main____CPAchecker_TMP_0___59))))))
(check-sat)
